(declare-fun temp1111_2 () (_ BitVec 64))
(declare-fun temp1111_1 () (_ BitVec 64))
(declare-fun temp1111_3 () (_ BitVec 64))
(declare-fun var3213110 () (_ BitVec 64))
(declare-fun var3412188 () (_ BitVec 64))
(declare-fun temp1111_4 () (_ BitVec 64))
(declare-fun var3543383 () (_ BitVec 64))
(declare-fun temp1111_5 () (_ BitVec 64))
(declare-fun var3543384 () (_ BitVec 64))
(declare-fun temp1111_7 () (_ BitVec 64))
(declare-fun temp1111_6 () (_ BitVec 64))
(declare-fun temp1111_8 () (_ BitVec 64))
(declare-fun var4130856 () (_ BitVec 64))
(declare-fun temp1111_9 () (_ BitVec 64))
(declare-fun var4130898 () (_ BitVec 64))
(declare-fun temp1111_11 () (_ BitVec 64))
(declare-fun temp1111_10 () (_ BitVec 64))
(declare-fun temp1111_12 () (_ BitVec 64))
(declare-fun var4852728 () (_ BitVec 64))
(declare-fun var4130843 () (_ BitVec 64))
(declare-fun var4130842 () (_ BitVec 64))
(declare-fun temp1111_13 () (_ BitVec 64))
(declare-fun var4130847 () (_ BitVec 64))
(declare-fun temp1111_14 () (_ BitVec 64))
(declare-fun var4130849 () (_ BitVec 64))
(declare-fun temp1111_15 () (_ BitVec 64))
(declare-fun temp1111_16 () (_ BitVec 64))
(declare-fun var5246106 () (_ BitVec 64))
(declare-fun temp1111_17 () (_ BitVec 64))
(declare-fun var5638350 () (_ BitVec 64))
(declare-fun temp1111_18 () (_ BitVec 64))
(declare-fun var5638427 () (_ BitVec 64))
(declare-fun var5638348 () (_ BitVec 64))
(declare-fun var532113 () (_ BitVec 64))
(declare-fun var532115 () (_ BitVec 64))
(declare-fun var6627039 () (_ BitVec 64))
(declare-fun temp1111_20 () (_ BitVec 64))
(declare-fun temp1111_19 () (_ BitVec 64))
(assert (= temp1111_2 #x0000000000000000))
(assert (= temp1111_1 temp1111_2))
(assert (= temp1111_3 #x0000000000000000))
(assert (= var3213110 temp1111_3))
(assert (= var3412188 var3213110))
(assert (= temp1111_4 #x0000000000000000))
(assert (= var3543383 temp1111_4))
(assert (= temp1111_5 #x0000000000000000))
(assert (= var3543384 temp1111_5))
(assert (= temp1111_7 #x0000000000000000))
(assert (= temp1111_6 temp1111_7))
(assert (= temp1111_8 #x0000000000000000))
(assert (= var4130856 temp1111_8))
(assert (= temp1111_9 #x0000000000000001))
(assert (= var4130898 temp1111_9))
(assert (= temp1111_11 #x0000000000000000))
(assert (= temp1111_10 temp1111_11))
(assert (= temp1111_12 #x0000000000000001))
(assert (= var4852728 temp1111_12))
(assert (= var4130843 var4130898))
(assert (= var4130842 var4130843))
(assert (= temp1111_13 #x0000000000000001))
(assert (= var4130847 (bvand var4130842 temp1111_13)))
(assert (= temp1111_14 #x0000000000000000))
(assert (= var4130849
   (ite (= var4130847 temp1111_14) #x0000000000000001 #x0000000000000000)))
(assert (= temp1111_15 #x0000000000000000))
(assert (= var4130849 temp1111_15))
(assert (= temp1111_16 #x0000000000000000))
(assert (= var5246106 temp1111_16))
(assert (= temp1111_17 #x0000000000000001))
(assert (= var5638350 temp1111_17))
(assert (= temp1111_18 #x0000000000000001))
(assert (= var5638427 temp1111_18))
(assert (= var5638348 var5638427))
(assert (= var532113 var5638348))
(assert (= var532115 var532113))
(assert (= var6627039 var532115))
(assert (= temp1111_20 #x0000000000000005))
(assert (= temp1111_19 temp1111_20))
(model-add temp1111_2 () (_ BitVec 64) #x0000000000000000)
(model-add temp1111_1 () (_ BitVec 64) #x0000000000000000)
(model-add temp1111_3 () (_ BitVec 64) #x0000000000000000)
(model-add var3213110 () (_ BitVec 64) #x0000000000000000)
(model-add var3412188 () (_ BitVec 64) #x0000000000000000)
(model-add temp1111_4 () (_ BitVec 64) #x0000000000000000)
(model-add var3543383 () (_ BitVec 64) #x0000000000000000)
(model-add temp1111_5 () (_ BitVec 64) #x0000000000000000)
(model-add var3543384 () (_ BitVec 64) #x0000000000000000)
(model-add temp1111_7 () (_ BitVec 64) #x0000000000000000)
(model-add temp1111_6 () (_ BitVec 64) #x0000000000000000)
(model-add temp1111_8 () (_ BitVec 64) #x0000000000000000)
(model-add var4130856 () (_ BitVec 64) #x0000000000000000)
(model-add temp1111_9 () (_ BitVec 64) #x0000000000000001)
(model-add var4130898 () (_ BitVec 64) #x0000000000000001)
(model-add temp1111_11 () (_ BitVec 64) #x0000000000000000)
(model-add temp1111_10 () (_ BitVec 64) #x0000000000000000)
(model-add temp1111_12 () (_ BitVec 64) #x0000000000000001)
(model-add var4852728 () (_ BitVec 64) #x0000000000000001)
(model-add var4130843 () (_ BitVec 64) #x0000000000000001)
(model-add var4130842 () (_ BitVec 64) #x0000000000000001)
(model-add temp1111_13 () (_ BitVec 64) #x0000000000000001)
(model-add var4130847 () (_ BitVec 64) #x0000000000000001)
(model-add temp1111_14 () (_ BitVec 64) #x0000000000000000)
(model-add var4130849 () (_ BitVec 64) #x0000000000000000)
(model-add temp1111_15 () (_ BitVec 64) #x0000000000000000)




